% demand
num_movements = 21;
loading_factor = [1800, 1150, 1550, 1100, 1050, 1250, 1350, 1250, 1300, 1550, 1000, 1150, 1450, 1850, 1500, 1200, 1250, 1300, 1400, 2000, 1300];
pickup_time = [0, 1, 1, 1, 1, 1, 3, 3, 3, 4, 4, 4, 4, 4, 4, 6, 6, 6, 7, 7, 7];
delivery_time = [4, 2, 2, 8, 5, 2, 4, 4, 4, 5, 5, 5, 6, 6, 5, 8, 8, 8, 8, 8, 8];

% transporter definition
total_capacity = 11000;
num_decks = 4;
capacity = [3000, 3000, 1000, 4000];

% ways out of decks
num_ways_out = 2;
paths_out = array3d(decks, ways_out, decks, [
% ways out of deck d1
2, 4, 0, 0, 3, 4, 0, 0, 

% ways out of deck d2
4, 0, 0, 0, 0, 0, 0, 0,	

% ways out of deck d3
4, 0, 0, 0, 0, 0, 0, 0,	

% ways out of deck d4
0, 0, 0, 0,	0, 0, 0, 0,	

]);

